instances/shortest_path/discrete/shortest_path_5_13.lp
\ Model nohadani_5_13
\ LP format - for model browsing. Use MPS format to capture full model detail.
\ Signature: 0xa1d49c5c4aa7c587
Minimize
  43.2781700167648 y[0,1] + 42.42640687119285 y[0,2]
   + 65.60487786742691 y[0,3] + 27.16615541441225 y[0,4]
   + 43.2781700167648 y[1,0] + 70.60453243241541 y[1,3] + 65 y[1,4]
   + 42.42640687119285 y[2,0] + 58.03447251418763 y[2,3]
   + 49.65883607174055 y[2,4] + 65.60487786742691 y[3,0]
   + 70.60453243241541 y[3,1] + 58.03447251418763 y[3,2]
   + 27.16615541441225 y[4,0] + 65 y[4,1] + 49.65883607174055 y[4,2]
   + x[0,1] + x[0,2] + x[0,3] + x[0,4] + x[1,0] + x[1,3] + x[1,4] + x[2,0]
   + x[2,3] + x[2,4] + x[3,0] + x[3,1] + x[3,2] + x[4,0] + x[4,1] + x[4,2]
   + 4.327817001676481 r[0,1] + 4.242640687119286 r[0,2]
   + 6.560487786742691 r[0,3] + 2.716615541441225 r[0,4]
   + 4.327817001676481 r[1,0] + 7.060453243241541 r[1,3] + 6.5 r[1,4]
   + 4.242640687119286 r[2,0] + 5.803447251418763 r[2,3]
   + 4.965883607174055 r[2,4] + 6.560487786742691 r[3,0]
   + 7.060453243241541 r[3,1] + 5.803447251418763 r[3,2]
   + 2.716615541441225 r[4,0] + 6.5 r[4,1] + 4.965883607174055 r[4,2]
Subject To
 flow_cons_inner_nodes[0]: - y[0,1] - y[0,2] - y[0,3] - y[0,4] + y[1,0]
   + y[2,0] + y[3,0] + y[4,0] = 0
 flow_cons_inner_nodes[1]: y[0,1] - y[1,0] - y[1,3] - y[1,4] + y[3,1]
   + y[4,1] = 0
 flow_cons_inner_nodes[2]: y[0,2] - y[2,0] - y[2,3] - y[2,4] + y[3,2]
   + y[4,2] = 0
 flow_cons_source: - y[0,3] - y[1,3] - y[2,3] + y[3,0] + y[3,1] + y[3,2]
   = 1
 flow_cons_target: y[0,4] + y[1,4] + y[2,4] - y[4,0] - y[4,1] - y[4,2] = 1
 primal_lower: 0.6318432496622209 x[0,1] + 4.281362779766588 x[0,2]
   + 5.14498581406409 x[0,3] + 0.9009445254767433 x[0,4]
   + 5.316163583763835 x[1,0] + 4.514591886481454 x[1,3]
   + 3.731619881168124 x[1,4] + 3.186005376279334 x[2,0]
   + 5.484512274324391 x[2,3] + 1.096511779620315 x[2,4]
   + 2.951289481732351 x[3,0] + 0.4777054828699027 x[3,1]
   + 2.184874276433867 x[3,2] + 4.44807038660633 x[4,0]
   + 3.305024521364582 x[4,1] + 4.675545868431921 x[4,2] + 89 u[0,1]
   + 89 u[0,2] + 63 u[0,3] + 40 u[0,4] + 53 u[1,0] + 63 u[1,3] + 78 u[1,4]
   + 53 u[2,0] + 26 u[2,3] + 35 u[2,4] + u[3,0] + 76 u[3,1] + 9 u[3,2]
   + 41 u[4,0] + 22 u[4,1] + 82 u[4,2] <= 89
 mccormick1[0,1]: - u[0,1] + r[0,1] <= 0
 mccormick1[0,2]: - u[0,2] + r[0,2] <= 0
 mccormick1[0,3]: - u[0,3] + r[0,3] <= 0
 mccormick1[0,4]: - u[0,4] + r[0,4] <= 0
 mccormick1[1,0]: - u[1,0] + r[1,0] <= 0
 mccormick1[1,3]: - u[1,3] + r[1,3] <= 0
 mccormick1[1,4]: - u[1,4] + r[1,4] <= 0
 mccormick1[2,0]: - u[2,0] + r[2,0] <= 0
 mccormick1[2,3]: - u[2,3] + r[2,3] <= 0
 mccormick1[2,4]: - u[2,4] + r[2,4] <= 0
 mccormick1[3,0]: - u[3,0] + r[3,0] <= 0
 mccormick1[3,1]: - u[3,1] + r[3,1] <= 0
 mccormick1[3,2]: - u[3,2] + r[3,2] <= 0
 mccormick1[4,0]: - u[4,0] + r[4,0] <= 0
 mccormick1[4,1]: - u[4,1] + r[4,1] <= 0
 mccormick1[4,2]: - u[4,2] + r[4,2] <= 0
 mccormick2[0,1]: - y[0,1] + r[0,1] <= 0
 mccormick2[0,2]: - y[0,2] + r[0,2] <= 0
 mccormick2[0,3]: - y[0,3] + r[0,3] <= 0
 mccormick2[0,4]: - y[0,4] + r[0,4] <= 0
 mccormick2[1,0]: - y[1,0] + r[1,0] <= 0
 mccormick2[1,3]: - y[1,3] + r[1,3] <= 0
 mccormick2[1,4]: - y[1,4] + r[1,4] <= 0
 mccormick2[2,0]: - y[2,0] + r[2,0] <= 0
 mccormick2[2,3]: - y[2,3] + r[2,3] <= 0
 mccormick2[2,4]: - y[2,4] + r[2,4] <= 0
 mccormick2[3,0]: - y[3,0] + r[3,0] <= 0
 mccormick2[3,1]: - y[3,1] + r[3,1] <= 0
 mccormick2[3,2]: - y[3,2] + r[3,2] <= 0
 mccormick2[4,0]: - y[4,0] + r[4,0] <= 0
 mccormick2[4,1]: - y[4,1] + r[4,1] <= 0
 mccormick2[4,2]: - y[4,2] + r[4,2] <= 0
 mccormick3[0,1]: - y[0,1] - u[0,1] + r[0,1] >= -1
 mccormick3[0,2]: - y[0,2] - u[0,2] + r[0,2] >= -1
 mccormick3[0,3]: - y[0,3] - u[0,3] + r[0,3] >= -1
 mccormick3[0,4]: - y[0,4] - u[0,4] + r[0,4] >= -1
 mccormick3[1,0]: - y[1,0] - u[1,0] + r[1,0] >= -1
 mccormick3[1,3]: - y[1,3] - u[1,3] + r[1,3] >= -1
 mccormick3[1,4]: - y[1,4] - u[1,4] + r[1,4] >= -1
 mccormick3[2,0]: - y[2,0] - u[2,0] + r[2,0] >= -1
 mccormick3[2,3]: - y[2,3] - u[2,3] + r[2,3] >= -1
 mccormick3[2,4]: - y[2,4] - u[2,4] + r[2,4] >= -1
 mccormick3[3,0]: - y[3,0] - u[3,0] + r[3,0] >= -1
 mccormick3[3,1]: - y[3,1] - u[3,1] + r[3,1] >= -1
 mccormick3[3,2]: - y[3,2] - u[3,2] + r[3,2] >= -1
 mccormick3[4,0]: - y[4,0] - u[4,0] + r[4,0] >= -1
 mccormick3[4,1]: - y[4,1] - u[4,1] + r[4,1] >= -1
 mccormick3[4,2]: - y[4,2] - u[4,2] + r[4,2] >= -1
Bounds
Binaries
 y[0,1] y[0,2] y[0,3] y[0,4] y[1,0] y[1,3] y[1,4] y[2,0] y[2,3] y[2,4]
 y[3,0] y[3,1] y[3,2] y[4,0] y[4,1] y[4,2] x[0,1] x[0,2] x[0,3] x[0,4]
 x[1,0] x[1,3] x[1,4] x[2,0] x[2,3] x[2,4] x[3,0] x[3,1] x[3,2] x[4,0]
 x[4,1] x[4,2] u[0,1] u[0,2] u[0,3] u[0,4] u[1,0] u[1,3] u[1,4] u[2,0]
 u[2,3] u[2,4] u[3,0] u[3,1] u[3,2] u[4,0] u[4,1] u[4,2] r[0,1] r[0,2]
 r[0,3] r[0,4] r[1,0] r[1,3] r[1,4] r[2,0] r[2,3] r[2,4] r[3,0] r[3,1]
 r[3,2] r[4,0] r[4,1] r[4,2]
End
