instances/shortest_path/discrete/shortest_path_5_13.kp
63596
89

[0.6318432496622209 4.281362779766588 5.14498581406409 0.9009445254767433 5.316163583763835 4.514591886481454 3.731619881168124 3.186005376279334 5.484512274324391 1.0965117796203145 2.951289481732351 0.47770548286990266 2.1848742764338667 4.44807038660633 3.3050245213645817 4.675545868431921]

[89 89 63 40 53 63 78 53 26 35 1 76 9 41 22 82]
